p cnf 435 1477
c p weight 174 -1 0
c p weight -174 1 0
c p weight 176 6.12323399573676603586882014729198302312846062338790031898128063403419218957424163818359375E-17 0
c p weight -176 1 0
c p weight 177 1 0
c p weight -177 1 0
c p weight 178 -1 0
c p weight -178 1 0
c p weight 180 -1 0
c p weight -180 1 0
c p weight 183 -1 0
c p weight -183 1 0
c p weight 186 -1 0
c p weight -186 1 0
c p weight 189 -1 0
c p weight -189 1 0
c p weight 192 -1 0
c p weight -192 1 0
c p weight 195 -1 0
c p weight -195 1 0
c p weight 198 -1 0
c p weight -198 1 0
c p weight 201 -1 0
c p weight -201 1 0
c p weight 204 -1 0
c p weight -204 1 0
c p weight 207 -1 0
c p weight -207 1 0
c p weight 210 -1 0
c p weight -210 1 0
c p weight 213 -1 0
c p weight -213 1 0
c p weight 216 -1 0
c p weight -216 1 0
c p weight 219 -1 0
c p weight -219 1 0
c p weight 222 -1 0
c p weight -222 1 0
c p weight 225 -1 0
c p weight -225 1 0
c p weight 228 -1 0
c p weight -228 1 0
c p weight 231 -1 0
c p weight -231 1 0
c p weight 234 -1 0
c p weight -234 1 0
c p weight 237 -1 0
c p weight -237 1 0
c p weight 240 -1 0
c p weight -240 1 0
c p weight 243 -1 0
c p weight -243 1 0
c p weight 246 -1 0
c p weight -246 1 0
c p weight 249 -1 0
c p weight -249 1 0
c p weight 252 -1 0
c p weight -252 1 0
c p weight 255 -1 0
c p weight -255 1 0
c p weight 258 -1 0
c p weight -258 1 0
c p weight 261 -1 0
c p weight -261 1 0
c p weight 264 -1 0
c p weight -264 1 0
c p weight 267 -1 0
c p weight -267 1 0
c p weight 270 -1 0
c p weight -270 1 0
c p weight 273 -1 0
c p weight -273 1 0
c p weight 276 -1 0
c p weight -276 1 0
c p weight 279 -1 0
c p weight -279 1 0
c p weight 282 -1 0
c p weight -282 1 0
c p weight 285 -1 0
c p weight -285 1 0
c p weight 288 -1 0
c p weight -288 1 0
c p weight 291 -1 0
c p weight -291 1 0
c p weight 294 -1 0
c p weight -294 1 0
c p weight 297 -1 0
c p weight -297 1 0
c p weight 300 -1 0
c p weight -300 1 0
c p weight 303 -1 0
c p weight -303 1 0
c p weight 306 -1 0
c p weight -306 1 0
c p weight 309 -1 0
c p weight -309 1 0
c p weight 312 -1 0
c p weight -312 1 0
c p weight 315 -1 0
c p weight -315 1 0
c p weight 318 -1 0
c p weight -318 1 0
c p weight 321 -1 0
c p weight -321 1 0
c p weight 324 -1 0
c p weight -324 1 0
c p weight 327 -1 0
c p weight -327 1 0
c p weight 330 -1 0
c p weight -330 1 0
c p weight 333 -1 0
c p weight -333 1 0
c p weight 336 -1 0
c p weight -336 1 0
c p weight 339 -1 0
c p weight -339 1 0
c p weight 342 -1 0
c p weight -342 1 0
c p weight 345 -1 0
c p weight -345 1 0
c p weight 348 -1 0
c p weight -348 1 0
c p weight 351 -1 0
c p weight -351 1 0
c p weight 354 -1 0
c p weight -354 1 0
c p weight 357 -1 0
c p weight -357 1 0
c p weight 360 -1 0
c p weight -360 1 0
c p weight 363 -1 0
c p weight -363 1 0
c p weight 366 -1 0
c p weight -366 1 0
c p weight 369 -1 0
c p weight -369 1 0
c p weight 372 -1 0
c p weight -372 1 0
c p weight 375 -1 0
c p weight -375 1 0
c p weight 378 -1 0
c p weight -378 1 0
c p weight 381 -1 0
c p weight -381 1 0
c p weight 384 -1 0
c p weight -384 1 0
c p weight 387 -1 0
c p weight -387 1 0
c p weight 390 -1 0
c p weight -390 1 0
c p weight 393 -1 0
c p weight -393 1 0
c p weight 396 -1 0
c p weight -396 1 0
c p weight 399 -1 0
c p weight -399 1 0
c p weight 402 -1 0
c p weight -402 1 0
c p weight 405 -1 0
c p weight -405 1 0
c p weight 408 -1 0
c p weight -408 1 0
c p weight 411 -1 0
c p weight -411 1 0
c p weight 414 -1 0
c p weight -414 1 0
c p weight 417 -1 0
c p weight -417 1 0
c p weight 420 -1 0
c p weight -420 1 0
c p weight 423 -1 0
c p weight -423 1 0
c p weight 426 -1 0
c p weight -426 1 0
c p weight 429 -1 0
c p weight -429 1 0
c p weight 432 -1 0
c p weight -432 1 0
c p weight 435 -1 0
c p weight -435 1 0
-171 0
-169 0
-167 0
-165 0
-163 0
-161 0
-159 0
-157 0
-155 0
-153 0
-151 0
-149 0
-147 0
-145 0
-143 0
-141 0
-139 0
-137 0
-135 0
-133 0
-131 0
-129 0
-127 0
-125 0
-123 0
-121 0
-119 0
-117 0
-115 0
-113 0
-111 0
-109 0
-107 0
-105 0
-103 0
-101 0
-99 0
-97 0
-95 0
-93 0
-91 0
-89 0
-87 0
-85 0
-83 0
-81 0
-79 0
-77 0
-75 0
-73 0
-71 0
-69 0
-67 0
-65 0
-63 0
-61 0
-59 0
-57 0
-55 0
-53 0
-51 0
-49 0
-47 0
-45 0
-43 0
-41 0
-39 0
-37 0
-35 0
-33 0
-31 0
-29 0
-27 0
-25 0
-23 0
-21 0
-19 0
-17 0
-15 0
-13 0
-11 0
-9 0
-7 0
-5 0
-3 0
-1 0
173 171 -172 0
173 -171 172 0
-173 171 172 0
-173 -171 -172 0
-174 171 0
-174 172 0
174 -171 -172 0
175 -171 173 0
-175 171 173 0
-176 173 0
175 -176 -171 0
-175 -176 171 0
175 176 171 -173 0
-175 176 -171 -173 0
-177 173 0
175 -177 171 0
-175 -177 -171 0
175 177 -171 -173 0
-175 177 171 -173 0
-178 175 0
-178 173 0
-178 -171 0
178 -175 171 -173 0
179 175 -173 0
179 -175 173 0
-179 175 173 0
-179 -175 -173 0
-180 175 0
-180 173 0
180 -175 -173 0
181 175 -169 0
181 -175 169 0
-181 175 169 0
-181 -175 -169 0
182 179 -170 0
182 -179 170 0
-182 179 170 0
-182 -179 -170 0
-183 175 0
-183 170 0
-183 169 -179 0
-183 -169 179 0
183 -175 169 179 -170 0
183 -175 -169 -179 -170 0
184 181 -167 0
184 -181 167 0
-184 181 167 0
-184 -181 -167 0
185 170 -168 0
185 -170 168 0
-185 170 168 0
-185 -170 -168 0
-186 181 0
-186 168 0
-186 167 -170 0
-186 -167 170 0
186 -181 167 170 -168 0
186 -181 -167 -170 -168 0
187 184 -165 0
187 -184 165 0
-187 184 165 0
-187 -184 -165 0
188 168 -166 0
188 -168 166 0
-188 168 166 0
-188 -168 -166 0
-189 184 0
-189 166 0
-189 165 -168 0
-189 -165 168 0
189 -184 165 168 -166 0
189 -184 -165 -168 -166 0
190 187 -163 0
190 -187 163 0
-190 187 163 0
-190 -187 -163 0
191 166 -164 0
191 -166 164 0
-191 166 164 0
-191 -166 -164 0
-192 187 0
-192 164 0
-192 163 -166 0
-192 -163 166 0
192 -187 163 166 -164 0
192 -187 -163 -166 -164 0
193 190 -161 0
193 -190 161 0
-193 190 161 0
-193 -190 -161 0
194 164 -162 0
194 -164 162 0
-194 164 162 0
-194 -164 -162 0
-195 190 0
-195 162 0
-195 161 -164 0
-195 -161 164 0
195 -190 161 164 -162 0
195 -190 -161 -164 -162 0
196 193 -159 0
196 -193 159 0
-196 193 159 0
-196 -193 -159 0
197 162 -160 0
197 -162 160 0
-197 162 160 0
-197 -162 -160 0
-198 193 0
-198 160 0
-198 159 -162 0
-198 -159 162 0
198 -193 159 162 -160 0
198 -193 -159 -162 -160 0
199 196 -157 0
199 -196 157 0
-199 196 157 0
-199 -196 -157 0
200 160 -158 0
200 -160 158 0
-200 160 158 0
-200 -160 -158 0
-201 196 0
-201 158 0
-201 157 -160 0
-201 -157 160 0
201 -196 157 160 -158 0
201 -196 -157 -160 -158 0
202 199 -155 0
202 -199 155 0
-202 199 155 0
-202 -199 -155 0
203 158 -156 0
203 -158 156 0
-203 158 156 0
-203 -158 -156 0
-204 199 0
-204 156 0
-204 155 -158 0
-204 -155 158 0
204 -199 155 158 -156 0
204 -199 -155 -158 -156 0
205 202 -153 0
205 -202 153 0
-205 202 153 0
-205 -202 -153 0
206 156 -154 0
206 -156 154 0
-206 156 154 0
-206 -156 -154 0
-207 202 0
-207 154 0
-207 153 -156 0
-207 -153 156 0
207 -202 153 156 -154 0
207 -202 -153 -156 -154 0
208 205 -151 0
208 -205 151 0
-208 205 151 0
-208 -205 -151 0
209 154 -152 0
209 -154 152 0
-209 154 152 0
-209 -154 -152 0
-210 205 0
-210 152 0
-210 151 -154 0
-210 -151 154 0
210 -205 151 154 -152 0
210 -205 -151 -154 -152 0
211 208 -149 0
211 -208 149 0
-211 208 149 0
-211 -208 -149 0
212 152 -150 0
212 -152 150 0
-212 152 150 0
-212 -152 -150 0
-213 208 0
-213 150 0
-213 149 -152 0
-213 -149 152 0
213 -208 149 152 -150 0
213 -208 -149 -152 -150 0
214 211 -147 0
214 -211 147 0
-214 211 147 0
-214 -211 -147 0
215 150 -148 0
215 -150 148 0
-215 150 148 0
-215 -150 -148 0
-216 211 0
-216 148 0
-216 147 -150 0
-216 -147 150 0
216 -211 147 150 -148 0
216 -211 -147 -150 -148 0
217 214 -145 0
217 -214 145 0
-217 214 145 0
-217 -214 -145 0
218 148 -146 0
218 -148 146 0
-218 148 146 0
-218 -148 -146 0
-219 214 0
-219 146 0
-219 145 -148 0
-219 -145 148 0
219 -214 145 148 -146 0
219 -214 -145 -148 -146 0
220 217 -143 0
220 -217 143 0
-220 217 143 0
-220 -217 -143 0
221 146 -144 0
221 -146 144 0
-221 146 144 0
-221 -146 -144 0
-222 217 0
-222 144 0
-222 143 -146 0
-222 -143 146 0
222 -217 143 146 -144 0
222 -217 -143 -146 -144 0
223 220 -141 0
223 -220 141 0
-223 220 141 0
-223 -220 -141 0
224 144 -142 0
224 -144 142 0
-224 144 142 0
-224 -144 -142 0
-225 220 0
-225 142 0
-225 141 -144 0
-225 -141 144 0
225 -220 141 144 -142 0
225 -220 -141 -144 -142 0
226 223 -139 0
226 -223 139 0
-226 223 139 0
-226 -223 -139 0
227 142 -140 0
227 -142 140 0
-227 142 140 0
-227 -142 -140 0
-228 223 0
-228 140 0
-228 139 -142 0
-228 -139 142 0
228 -223 139 142 -140 0
228 -223 -139 -142 -140 0
229 226 -137 0
229 -226 137 0
-229 226 137 0
-229 -226 -137 0
230 140 -138 0
230 -140 138 0
-230 140 138 0
-230 -140 -138 0
-231 226 0
-231 138 0
-231 137 -140 0
-231 -137 140 0
231 -226 137 140 -138 0
231 -226 -137 -140 -138 0
232 229 -135 0
232 -229 135 0
-232 229 135 0
-232 -229 -135 0
233 138 -136 0
233 -138 136 0
-233 138 136 0
-233 -138 -136 0
-234 229 0
-234 136 0
-234 135 -138 0
-234 -135 138 0
234 -229 135 138 -136 0
234 -229 -135 -138 -136 0
235 232 -133 0
235 -232 133 0
-235 232 133 0
-235 -232 -133 0
236 136 -134 0
236 -136 134 0
-236 136 134 0
-236 -136 -134 0
-237 232 0
-237 134 0
-237 133 -136 0
-237 -133 136 0
237 -232 133 136 -134 0
237 -232 -133 -136 -134 0
238 235 -131 0
238 -235 131 0
-238 235 131 0
-238 -235 -131 0
239 134 -132 0
239 -134 132 0
-239 134 132 0
-239 -134 -132 0
-240 235 0
-240 132 0
-240 131 -134 0
-240 -131 134 0
240 -235 131 134 -132 0
240 -235 -131 -134 -132 0
241 238 -129 0
241 -238 129 0
-241 238 129 0
-241 -238 -129 0
242 132 -130 0
242 -132 130 0
-242 132 130 0
-242 -132 -130 0
-243 238 0
-243 130 0
-243 129 -132 0
-243 -129 132 0
243 -238 129 132 -130 0
243 -238 -129 -132 -130 0
244 241 -127 0
244 -241 127 0
-244 241 127 0
-244 -241 -127 0
245 130 -128 0
245 -130 128 0
-245 130 128 0
-245 -130 -128 0
-246 241 0
-246 128 0
-246 127 -130 0
-246 -127 130 0
246 -241 127 130 -128 0
246 -241 -127 -130 -128 0
247 244 -125 0
247 -244 125 0
-247 244 125 0
-247 -244 -125 0
248 128 -126 0
248 -128 126 0
-248 128 126 0
-248 -128 -126 0
-249 244 0
-249 126 0
-249 125 -128 0
-249 -125 128 0
249 -244 125 128 -126 0
249 -244 -125 -128 -126 0
250 247 -123 0
250 -247 123 0
-250 247 123 0
-250 -247 -123 0
251 126 -124 0
251 -126 124 0
-251 126 124 0
-251 -126 -124 0
-252 247 0
-252 124 0
-252 123 -126 0
-252 -123 126 0
252 -247 123 126 -124 0
252 -247 -123 -126 -124 0
253 250 -121 0
253 -250 121 0
-253 250 121 0
-253 -250 -121 0
254 124 -122 0
254 -124 122 0
-254 124 122 0
-254 -124 -122 0
-255 250 0
-255 122 0
-255 121 -124 0
-255 -121 124 0
255 -250 121 124 -122 0
255 -250 -121 -124 -122 0
256 253 -119 0
256 -253 119 0
-256 253 119 0
-256 -253 -119 0
257 122 -120 0
257 -122 120 0
-257 122 120 0
-257 -122 -120 0
-258 253 0
-258 120 0
-258 119 -122 0
-258 -119 122 0
258 -253 119 122 -120 0
258 -253 -119 -122 -120 0
259 256 -117 0
259 -256 117 0
-259 256 117 0
-259 -256 -117 0
260 120 -118 0
260 -120 118 0
-260 120 118 0
-260 -120 -118 0
-261 256 0
-261 118 0
-261 117 -120 0
-261 -117 120 0
261 -256 117 120 -118 0
261 -256 -117 -120 -118 0
262 259 -115 0
262 -259 115 0
-262 259 115 0
-262 -259 -115 0
263 118 -116 0
263 -118 116 0
-263 118 116 0
-263 -118 -116 0
-264 259 0
-264 116 0
-264 115 -118 0
-264 -115 118 0
264 -259 115 118 -116 0
264 -259 -115 -118 -116 0
265 262 -113 0
265 -262 113 0
-265 262 113 0
-265 -262 -113 0
266 116 -114 0
266 -116 114 0
-266 116 114 0
-266 -116 -114 0
-267 262 0
-267 114 0
-267 113 -116 0
-267 -113 116 0
267 -262 113 116 -114 0
267 -262 -113 -116 -114 0
268 265 -111 0
268 -265 111 0
-268 265 111 0
-268 -265 -111 0
269 114 -112 0
269 -114 112 0
-269 114 112 0
-269 -114 -112 0
-270 265 0
-270 112 0
-270 111 -114 0
-270 -111 114 0
270 -265 111 114 -112 0
270 -265 -111 -114 -112 0
271 268 -109 0
271 -268 109 0
-271 268 109 0
-271 -268 -109 0
272 112 -110 0
272 -112 110 0
-272 112 110 0
-272 -112 -110 0
-273 268 0
-273 110 0
-273 109 -112 0
-273 -109 112 0
273 -268 109 112 -110 0
273 -268 -109 -112 -110 0
274 271 -107 0
274 -271 107 0
-274 271 107 0
-274 -271 -107 0
275 110 -108 0
275 -110 108 0
-275 110 108 0
-275 -110 -108 0
-276 271 0
-276 108 0
-276 107 -110 0
-276 -107 110 0
276 -271 107 110 -108 0
276 -271 -107 -110 -108 0
277 274 -105 0
277 -274 105 0
-277 274 105 0
-277 -274 -105 0
278 108 -106 0
278 -108 106 0
-278 108 106 0
-278 -108 -106 0
-279 274 0
-279 106 0
-279 105 -108 0
-279 -105 108 0
279 -274 105 108 -106 0
279 -274 -105 -108 -106 0
280 277 -103 0
280 -277 103 0
-280 277 103 0
-280 -277 -103 0
281 106 -104 0
281 -106 104 0
-281 106 104 0
-281 -106 -104 0
-282 277 0
-282 104 0
-282 103 -106 0
-282 -103 106 0
282 -277 103 106 -104 0
282 -277 -103 -106 -104 0
283 280 -101 0
283 -280 101 0
-283 280 101 0
-283 -280 -101 0
284 104 -102 0
284 -104 102 0
-284 104 102 0
-284 -104 -102 0
-285 280 0
-285 102 0
-285 101 -104 0
-285 -101 104 0
285 -280 101 104 -102 0
285 -280 -101 -104 -102 0
286 283 -99 0
286 -283 99 0
-286 283 99 0
-286 -283 -99 0
287 102 -100 0
287 -102 100 0
-287 102 100 0
-287 -102 -100 0
-288 283 0
-288 100 0
-288 99 -102 0
-288 -99 102 0
288 -283 99 102 -100 0
288 -283 -99 -102 -100 0
289 286 -97 0
289 -286 97 0
-289 286 97 0
-289 -286 -97 0
290 100 -98 0
290 -100 98 0
-290 100 98 0
-290 -100 -98 0
-291 286 0
-291 98 0
-291 97 -100 0
-291 -97 100 0
291 -286 97 100 -98 0
291 -286 -97 -100 -98 0
292 289 -95 0
292 -289 95 0
-292 289 95 0
-292 -289 -95 0
293 98 -96 0
293 -98 96 0
-293 98 96 0
-293 -98 -96 0
-294 289 0
-294 96 0
-294 95 -98 0
-294 -95 98 0
294 -289 95 98 -96 0
294 -289 -95 -98 -96 0
295 292 -93 0
295 -292 93 0
-295 292 93 0
-295 -292 -93 0
296 96 -94 0
296 -96 94 0
-296 96 94 0
-296 -96 -94 0
-297 292 0
-297 94 0
-297 93 -96 0
-297 -93 96 0
297 -292 93 96 -94 0
297 -292 -93 -96 -94 0
298 295 -91 0
298 -295 91 0
-298 295 91 0
-298 -295 -91 0
299 94 -92 0
299 -94 92 0
-299 94 92 0
-299 -94 -92 0
-300 295 0
-300 92 0
-300 91 -94 0
-300 -91 94 0
300 -295 91 94 -92 0
300 -295 -91 -94 -92 0
301 298 -89 0
301 -298 89 0
-301 298 89 0
-301 -298 -89 0
302 92 -90 0
302 -92 90 0
-302 92 90 0
-302 -92 -90 0
-303 298 0
-303 90 0
-303 89 -92 0
-303 -89 92 0
303 -298 89 92 -90 0
303 -298 -89 -92 -90 0
304 301 -87 0
304 -301 87 0
-304 301 87 0
-304 -301 -87 0
305 90 -88 0
305 -90 88 0
-305 90 88 0
-305 -90 -88 0
-306 301 0
-306 88 0
-306 87 -90 0
-306 -87 90 0
306 -301 87 90 -88 0
306 -301 -87 -90 -88 0
307 304 -85 0
307 -304 85 0
-307 304 85 0
-307 -304 -85 0
308 88 -86 0
308 -88 86 0
-308 88 86 0
-308 -88 -86 0
-309 304 0
-309 86 0
-309 85 -88 0
-309 -85 88 0
309 -304 85 88 -86 0
309 -304 -85 -88 -86 0
310 307 -83 0
310 -307 83 0
-310 307 83 0
-310 -307 -83 0
311 86 -84 0
311 -86 84 0
-311 86 84 0
-311 -86 -84 0
-312 307 0
-312 84 0
-312 83 -86 0
-312 -83 86 0
312 -307 83 86 -84 0
312 -307 -83 -86 -84 0
313 310 -81 0
313 -310 81 0
-313 310 81 0
-313 -310 -81 0
314 84 -82 0
314 -84 82 0
-314 84 82 0
-314 -84 -82 0
-315 310 0
-315 82 0
-315 81 -84 0
-315 -81 84 0
315 -310 81 84 -82 0
315 -310 -81 -84 -82 0
316 313 -79 0
316 -313 79 0
-316 313 79 0
-316 -313 -79 0
317 82 -80 0
317 -82 80 0
-317 82 80 0
-317 -82 -80 0
-318 313 0
-318 80 0
-318 79 -82 0
-318 -79 82 0
318 -313 79 82 -80 0
318 -313 -79 -82 -80 0
319 316 -77 0
319 -316 77 0
-319 316 77 0
-319 -316 -77 0
320 80 -78 0
320 -80 78 0
-320 80 78 0
-320 -80 -78 0
-321 316 0
-321 78 0
-321 77 -80 0
-321 -77 80 0
321 -316 77 80 -78 0
321 -316 -77 -80 -78 0
322 319 -75 0
322 -319 75 0
-322 319 75 0
-322 -319 -75 0
323 78 -76 0
323 -78 76 0
-323 78 76 0
-323 -78 -76 0
-324 319 0
-324 76 0
-324 75 -78 0
-324 -75 78 0
324 -319 75 78 -76 0
324 -319 -75 -78 -76 0
325 322 -73 0
325 -322 73 0
-325 322 73 0
-325 -322 -73 0
326 76 -74 0
326 -76 74 0
-326 76 74 0
-326 -76 -74 0
-327 322 0
-327 74 0
-327 73 -76 0
-327 -73 76 0
327 -322 73 76 -74 0
327 -322 -73 -76 -74 0
328 325 -71 0
328 -325 71 0
-328 325 71 0
-328 -325 -71 0
329 74 -72 0
329 -74 72 0
-329 74 72 0
-329 -74 -72 0
-330 325 0
-330 72 0
-330 71 -74 0
-330 -71 74 0
330 -325 71 74 -72 0
330 -325 -71 -74 -72 0
331 328 -69 0
331 -328 69 0
-331 328 69 0
-331 -328 -69 0
332 72 -70 0
332 -72 70 0
-332 72 70 0
-332 -72 -70 0
-333 328 0
-333 70 0
-333 69 -72 0
-333 -69 72 0
333 -328 69 72 -70 0
333 -328 -69 -72 -70 0
334 331 -67 0
334 -331 67 0
-334 331 67 0
-334 -331 -67 0
335 70 -68 0
335 -70 68 0
-335 70 68 0
-335 -70 -68 0
-336 331 0
-336 68 0
-336 67 -70 0
-336 -67 70 0
336 -331 67 70 -68 0
336 -331 -67 -70 -68 0
337 334 -65 0
337 -334 65 0
-337 334 65 0
-337 -334 -65 0
338 68 -66 0
338 -68 66 0
-338 68 66 0
-338 -68 -66 0
-339 334 0
-339 66 0
-339 65 -68 0
-339 -65 68 0
339 -334 65 68 -66 0
339 -334 -65 -68 -66 0
340 337 -63 0
340 -337 63 0
-340 337 63 0
-340 -337 -63 0
341 66 -64 0
341 -66 64 0
-341 66 64 0
-341 -66 -64 0
-342 337 0
-342 64 0
-342 63 -66 0
-342 -63 66 0
342 -337 63 66 -64 0
342 -337 -63 -66 -64 0
343 340 -61 0
343 -340 61 0
-343 340 61 0
-343 -340 -61 0
344 64 -62 0
344 -64 62 0
-344 64 62 0
-344 -64 -62 0
-345 340 0
-345 62 0
-345 61 -64 0
-345 -61 64 0
345 -340 61 64 -62 0
345 -340 -61 -64 -62 0
346 343 -59 0
346 -343 59 0
-346 343 59 0
-346 -343 -59 0
347 62 -60 0
347 -62 60 0
-347 62 60 0
-347 -62 -60 0
-348 343 0
-348 60 0
-348 59 -62 0
-348 -59 62 0
348 -343 59 62 -60 0
348 -343 -59 -62 -60 0
349 346 -57 0
349 -346 57 0
-349 346 57 0
-349 -346 -57 0
350 60 -58 0
350 -60 58 0
-350 60 58 0
-350 -60 -58 0
-351 346 0
-351 58 0
-351 57 -60 0
-351 -57 60 0
351 -346 57 60 -58 0
351 -346 -57 -60 -58 0
352 349 -55 0
352 -349 55 0
-352 349 55 0
-352 -349 -55 0
353 58 -56 0
353 -58 56 0
-353 58 56 0
-353 -58 -56 0
-354 349 0
-354 56 0
-354 55 -58 0
-354 -55 58 0
354 -349 55 58 -56 0
354 -349 -55 -58 -56 0
355 352 -53 0
355 -352 53 0
-355 352 53 0
-355 -352 -53 0
356 56 -54 0
356 -56 54 0
-356 56 54 0
-356 -56 -54 0
-357 352 0
-357 54 0
-357 53 -56 0
-357 -53 56 0
357 -352 53 56 -54 0
357 -352 -53 -56 -54 0
358 355 -51 0
358 -355 51 0
-358 355 51 0
-358 -355 -51 0
359 54 -52 0
359 -54 52 0
-359 54 52 0
-359 -54 -52 0
-360 355 0
-360 52 0
-360 51 -54 0
-360 -51 54 0
360 -355 51 54 -52 0
360 -355 -51 -54 -52 0
361 358 -49 0
361 -358 49 0
-361 358 49 0
-361 -358 -49 0
362 52 -50 0
362 -52 50 0
-362 52 50 0
-362 -52 -50 0
-363 358 0
-363 50 0
-363 49 -52 0
-363 -49 52 0
363 -358 49 52 -50 0
363 -358 -49 -52 -50 0
364 361 -47 0
364 -361 47 0
-364 361 47 0
-364 -361 -47 0
365 50 -48 0
365 -50 48 0
-365 50 48 0
-365 -50 -48 0
-366 361 0
-366 48 0
-366 47 -50 0
-366 -47 50 0
366 -361 47 50 -48 0
366 -361 -47 -50 -48 0
367 364 -45 0
367 -364 45 0
-367 364 45 0
-367 -364 -45 0
368 48 -46 0
368 -48 46 0
-368 48 46 0
-368 -48 -46 0
-369 364 0
-369 46 0
-369 45 -48 0
-369 -45 48 0
369 -364 45 48 -46 0
369 -364 -45 -48 -46 0
370 367 -43 0
370 -367 43 0
-370 367 43 0
-370 -367 -43 0
371 46 -44 0
371 -46 44 0
-371 46 44 0
-371 -46 -44 0
-372 367 0
-372 44 0
-372 43 -46 0
-372 -43 46 0
372 -367 43 46 -44 0
372 -367 -43 -46 -44 0
373 370 -41 0
373 -370 41 0
-373 370 41 0
-373 -370 -41 0
374 44 -42 0
374 -44 42 0
-374 44 42 0
-374 -44 -42 0
-375 370 0
-375 42 0
-375 41 -44 0
-375 -41 44 0
375 -370 41 44 -42 0
375 -370 -41 -44 -42 0
376 373 -39 0
376 -373 39 0
-376 373 39 0
-376 -373 -39 0
377 42 -40 0
377 -42 40 0
-377 42 40 0
-377 -42 -40 0
-378 373 0
-378 40 0
-378 39 -42 0
-378 -39 42 0
378 -373 39 42 -40 0
378 -373 -39 -42 -40 0
379 376 -37 0
379 -376 37 0
-379 376 37 0
-379 -376 -37 0
380 40 -38 0
380 -40 38 0
-380 40 38 0
-380 -40 -38 0
-381 376 0
-381 38 0
-381 37 -40 0
-381 -37 40 0
381 -376 37 40 -38 0
381 -376 -37 -40 -38 0
382 379 -35 0
382 -379 35 0
-382 379 35 0
-382 -379 -35 0
383 38 -36 0
383 -38 36 0
-383 38 36 0
-383 -38 -36 0
-384 379 0
-384 36 0
-384 35 -38 0
-384 -35 38 0
384 -379 35 38 -36 0
384 -379 -35 -38 -36 0
385 382 -33 0
385 -382 33 0
-385 382 33 0
-385 -382 -33 0
386 36 -34 0
386 -36 34 0
-386 36 34 0
-386 -36 -34 0
-387 382 0
-387 34 0
-387 33 -36 0
-387 -33 36 0
387 -382 33 36 -34 0
387 -382 -33 -36 -34 0
388 385 -31 0
388 -385 31 0
-388 385 31 0
-388 -385 -31 0
389 34 -32 0
389 -34 32 0
-389 34 32 0
-389 -34 -32 0
-390 385 0
-390 32 0
-390 31 -34 0
-390 -31 34 0
390 -385 31 34 -32 0
390 -385 -31 -34 -32 0
391 388 -29 0
391 -388 29 0
-391 388 29 0
-391 -388 -29 0
392 32 -30 0
392 -32 30 0
-392 32 30 0
-392 -32 -30 0
-393 388 0
-393 30 0
-393 29 -32 0
-393 -29 32 0
393 -388 29 32 -30 0
393 -388 -29 -32 -30 0
394 391 -27 0
394 -391 27 0
-394 391 27 0
-394 -391 -27 0
395 30 -28 0
395 -30 28 0
-395 30 28 0
-395 -30 -28 0
-396 391 0
-396 28 0
-396 27 -30 0
-396 -27 30 0
396 -391 27 30 -28 0
396 -391 -27 -30 -28 0
397 394 -25 0
397 -394 25 0
-397 394 25 0
-397 -394 -25 0
398 28 -26 0
398 -28 26 0
-398 28 26 0
-398 -28 -26 0
-399 394 0
-399 26 0
-399 25 -28 0
-399 -25 28 0
399 -394 25 28 -26 0
399 -394 -25 -28 -26 0
400 397 -23 0
400 -397 23 0
-400 397 23 0
-400 -397 -23 0
401 26 -24 0
401 -26 24 0
-401 26 24 0
-401 -26 -24 0
-402 397 0
-402 24 0
-402 23 -26 0
-402 -23 26 0
402 -397 23 26 -24 0
402 -397 -23 -26 -24 0
403 400 -21 0
403 -400 21 0
-403 400 21 0
-403 -400 -21 0
404 24 -22 0
404 -24 22 0
-404 24 22 0
-404 -24 -22 0
-405 400 0
-405 22 0
-405 21 -24 0
-405 -21 24 0
405 -400 21 24 -22 0
405 -400 -21 -24 -22 0
406 403 -19 0
406 -403 19 0
-406 403 19 0
-406 -403 -19 0
407 22 -20 0
407 -22 20 0
-407 22 20 0
-407 -22 -20 0
-408 403 0
-408 20 0
-408 19 -22 0
-408 -19 22 0
408 -403 19 22 -20 0
408 -403 -19 -22 -20 0
409 406 -17 0
409 -406 17 0
-409 406 17 0
-409 -406 -17 0
410 20 -18 0
410 -20 18 0
-410 20 18 0
-410 -20 -18 0
-411 406 0
-411 18 0
-411 17 -20 0
-411 -17 20 0
411 -406 17 20 -18 0
411 -406 -17 -20 -18 0
412 409 -15 0
412 -409 15 0
-412 409 15 0
-412 -409 -15 0
413 18 -16 0
413 -18 16 0
-413 18 16 0
-413 -18 -16 0
-414 409 0
-414 16 0
-414 15 -18 0
-414 -15 18 0
414 -409 15 18 -16 0
414 -409 -15 -18 -16 0
415 412 -13 0
415 -412 13 0
-415 412 13 0
-415 -412 -13 0
416 16 -14 0
416 -16 14 0
-416 16 14 0
-416 -16 -14 0
-417 412 0
-417 14 0
-417 13 -16 0
-417 -13 16 0
417 -412 13 16 -14 0
417 -412 -13 -16 -14 0
418 415 -11 0
418 -415 11 0
-418 415 11 0
-418 -415 -11 0
419 14 -12 0
419 -14 12 0
-419 14 12 0
-419 -14 -12 0
-420 415 0
-420 12 0
-420 11 -14 0
-420 -11 14 0
420 -415 11 14 -12 0
420 -415 -11 -14 -12 0
421 418 -9 0
421 -418 9 0
-421 418 9 0
-421 -418 -9 0
422 12 -10 0
422 -12 10 0
-422 12 10 0
-422 -12 -10 0
-423 418 0
-423 10 0
-423 9 -12 0
-423 -9 12 0
423 -418 9 12 -10 0
423 -418 -9 -12 -10 0
424 421 -7 0
424 -421 7 0
-424 421 7 0
-424 -421 -7 0
425 10 -8 0
425 -10 8 0
-425 10 8 0
-425 -10 -8 0
-426 421 0
-426 8 0
-426 7 -10 0
-426 -7 10 0
426 -421 7 10 -8 0
426 -421 -7 -10 -8 0
427 424 -5 0
427 -424 5 0
-427 424 5 0
-427 -424 -5 0
428 8 -6 0
428 -8 6 0
-428 8 6 0
-428 -8 -6 0
-429 424 0
-429 6 0
-429 5 -8 0
-429 -5 8 0
429 -424 5 8 -6 0
429 -424 -5 -8 -6 0
430 427 -3 0
430 -427 3 0
-430 427 3 0
-430 -427 -3 0
431 6 -4 0
431 -6 4 0
-431 6 4 0
-431 -6 -4 0
-432 427 0
-432 4 0
-432 3 -6 0
-432 -3 6 0
432 -427 3 6 -4 0
432 -427 -3 -6 -4 0
433 430 -1 0
433 -430 1 0
-433 430 1 0
-433 -430 -1 0
434 4 -2 0
434 -4 2 0
-434 4 2 0
-434 -4 -2 0
-435 430 0
-435 2 0
-435 1 -4 0
-435 -1 4 0
435 -430 1 4 -2 0
435 -430 -1 -4 -2 0
-433 0
-430 0
-434 0
-427 0
-431 0
-424 0
-428 0
-421 0
-425 0
-418 0
-422 0
-415 0
-419 0
-412 0
-416 0
-409 0
-413 0
-406 0
-410 0
-403 0
-407 0
-400 0
-404 0
-397 0
-401 0
-394 0
-398 0
-391 0
-395 0
-388 0
-392 0
-385 0
-389 0
-382 0
-386 0
-379 0
-383 0
-376 0
-380 0
-373 0
-377 0
-370 0
-374 0
-367 0
-371 0
-364 0
-368 0
-361 0
-365 0
-358 0
-362 0
-355 0
-359 0
-352 0
-356 0
-349 0
-353 0
-346 0
-350 0
-343 0
-347 0
-340 0
-344 0
-337 0
-341 0
-334 0
-338 0
-331 0
-335 0
-328 0
-332 0
-325 0
-329 0
-322 0
-326 0
-319 0
-323 0
-316 0
-320 0
-313 0
-317 0
-310 0
-314 0
-307 0
-311 0
-304 0
-308 0
-301 0
-305 0
-298 0
-302 0
-295 0
-299 0
-292 0
-296 0
-289 0
-293 0
-286 0
-290 0
-283 0
-287 0
-280 0
-284 0
-277 0
-281 0
-274 0
-278 0
-271 0
-275 0
-268 0
-272 0
-265 0
-269 0
-262 0
-266 0
-259 0
-263 0
-256 0
-260 0
-253 0
-257 0
-250 0
-254 0
-247 0
-251 0
-244 0
-248 0
-241 0
-245 0
-238 0
-242 0
-235 0
-239 0
-232 0
-236 0
-229 0
-233 0
-226 0
-230 0
-223 0
-227 0
-220 0
-224 0
-217 0
-221 0
-214 0
-218 0
-211 0
-215 0
-208 0
-212 0
-205 0
-209 0
-202 0
-206 0
-199 0
-203 0
-196 0
-200 0
-193 0
-197 0
-190 0
-194 0
-187 0
-191 0
-184 0
-188 0
-181 0
-185 0
-175 0
-182 0
